5 5
7 4 5 2 2 16 4 2 3 17 3 2 3 3 9 4 8 5 5 8 3 6 1 8 2 8 4 18 5 2 6 4 8 3 5 1 20 5 5 4 4 16 3 13 1 3 2 20 3 3 18 1 5 5 13 1 2 9
6 5 5 19 3 16 2 17 1 13 4 4 4 3 17 2 20 5 12 1 2 1 1 11 3 4 3 5 4 2 8 5 2 3 4 18 3 15 5 13 1 9 1 5 2
4 4 2 4 1 12 4 11 5 2 2 4 7 3 8 2 1 4 5 19 5 3 16 5 5 4 14 2 15 1 5
4 1 3 8 2 3 16 2 3 3 1 18 4 13 5 9 2 3 2 4 7
5 3 1 3 2 3 3 16 4 4 20 3 20 5 16 2 20 2 2 20 3 7 1 3 11 5 2 15 3 14 4 18 5 2 1 8